p cnf 662 1202              
-57 192 0
-49 184 0
-41 176 0
-33 168 0
-25 160 0
-17 152 0
-1 144 0
-9 144 0
1 9 -144 0
-144 152 0
17 144 -152 0
-152 160 0
25 152 -160 0
-160 168 0
33 160 -168 0
-168 176 0
41 168 -176 0
-176 184 0
49 176 -184 0
-184 192 0
57 184 -192 0
192 238 0
-58 193 0
-50 185 0
-42 177 0
-34 169 0
-26 161 0
-18 153 0
-2 145 0
-10 145 0
2 10 -145 0
-145 153 0
18 145 -153 0
-153 161 0
26 153 -161 0
-161 169 0
34 161 -169 0
-169 177 0
42 169 -177 0
-177 185 0
50 177 -185 0
-185 193 0
58 185 -193 0
193 200 0
192 200 0
-193 -192 -200 0
200 -214 0
-192 201 0
-193 201 0
192 193 -201 0
201 202 0
-59 194 0
-51 186 0
-43 178 0
-35 170 0
-27 162 0
-19 154 0
-3 146 0
-11 146 0
3 11 -146 0
-146 154 0
19 146 -154 0
-154 162 0
27 154 -162 0
-162 170 0
35 162 -170 0
-170 178 0
43 170 -178 0
-178 186 0
51 178 -186 0
-186 194 0
59 186 -194 0
194 202 0
-201 -194 -202 0
202 -214 0
-194 203 0
-201 203 0
194 201 -203 0
203 204 0
-60 195 0
-52 187 0
-44 179 0
-36 171 0
-28 163 0
-20 155 0
-4 147 0
-12 147 0
4 12 -147 0
-147 155 0
20 147 -155 0
-155 163 0
28 155 -163 0
-163 171 0
36 163 -171 0
-171 179 0
44 171 -179 0
-179 187 0
52 179 -187 0
-187 195 0
60 187 -195 0
195 204 0
-203 -195 -204 0
204 -214 0
-195 205 0
-203 205 0
195 203 -205 0
205 206 0
-61 196 0
-53 188 0
-45 180 0
-37 172 0
-29 164 0
-21 156 0
-5 148 0
-13 148 0
5 13 -148 0
-148 156 0
21 148 -156 0
-156 164 0
29 156 -164 0
-164 172 0
37 164 -172 0
-172 180 0
45 172 -180 0
-180 188 0
53 180 -188 0
-188 196 0
61 188 -196 0
196 206 0
-205 -196 -206 0
206 -214 0
-196 207 0
-205 207 0
196 205 -207 0
207 208 0
-62 197 0
-54 189 0
-46 181 0
-38 173 0
-30 165 0
-22 157 0
-6 149 0
-14 149 0
6 14 -149 0
-149 157 0
22 149 -157 0
-157 165 0
30 157 -165 0
-165 173 0
38 165 -173 0
-173 181 0
46 173 -181 0
-181 189 0
54 181 -189 0
-189 197 0
62 189 -197 0
197 208 0
-207 -197 -208 0
208 -214 0
-197 209 0
-207 209 0
197 207 -209 0
209 210 0
-63 198 0
-55 190 0
-47 182 0
-39 174 0
-31 166 0
-23 158 0
-7 150 0
-15 150 0
7 15 -150 0
-150 158 0
23 150 -158 0
-158 166 0
31 158 -166 0
-166 174 0
39 166 -174 0
-174 182 0
47 174 -182 0
-182 190 0
55 182 -190 0
-190 198 0
63 190 -198 0
198 210 0
-209 -198 -210 0
210 -214 0
-198 211 0
-209 211 0
198 209 -211 0
211 212 0
-64 199 0
-56 191 0
-48 183 0
-40 175 0
-32 167 0
-24 159 0
-8 151 0
-16 151 0
8 16 -151 0
-151 159 0
24 151 -159 0
-159 167 0
32 159 -167 0
-167 175 0
40 167 -175 0
-175 183 0
48 175 -183 0
-183 191 0
56 183 -191 0
-191 199 0
64 191 -199 0
199 212 0
-211 -199 -212 0
212 -214 0
-199 213 0
-211 213 0
199 211 -213 0
213 -214 0
-200 -202 -204 -206 -208 -210 -212 -213 214 0
-214 -192 230 0
214 -65 230 0
-192 -65 230 0
-230 238 0
193 239 0
-214 -193 231 0
214 -66 231 0
-193 -66 231 0
-231 239 0
194 240 0
-214 -194 232 0
214 -67 232 0
-194 -67 232 0
-232 240 0
195 241 0
-214 -195 233 0
214 -68 233 0
-195 -68 233 0
-233 241 0
196 242 0
-214 -196 234 0
214 -69 234 0
-196 -69 234 0
-234 242 0
197 243 0
-214 -197 235 0
214 -70 235 0
-197 -70 235 0
-235 243 0
198 244 0
-214 -198 236 0
214 -71 236 0
-198 -71 236 0
-236 244 0
199 245 0
-214 -199 237 0
214 -72 237 0
-199 -72 237 0
-237 245 0
-238 -239 -240 -241 -242 -243 -244 -245 246 0
-246 -247 0
-16 86 0
-15 85 0
-14 84 0
-13 83 0
-12 82 0
-11 81 0
-9 80 0
-10 80 0
9 10 -80 0
-80 81 0
11 80 -81 0
-81 82 0
12 81 -82 0
-82 83 0
13 82 -83 0
-83 84 0
14 83 -84 0
-84 85 0
15 84 -85 0
-85 86 0
16 85 -86 0
-8 79 0
-7 78 0
-6 77 0
-5 76 0
-4 75 0
-3 74 0
-1 73 0
-2 73 0
1 2 -73 0
-73 74 0
3 73 -74 0
-74 75 0
4 74 -75 0
-75 76 0
5 75 -76 0
-76 77 0
6 76 -77 0
-77 78 0
7 77 -78 0
-78 79 0
8 78 -79 0
-86 -79 -129 0
129 -143 0
-79 130 0
-86 130 0
79 86 -130 0
-24 93 0
-23 92 0
-22 91 0
-21 90 0
-20 89 0
-19 88 0
-17 87 0
-18 87 0
17 18 -87 0
-87 88 0
19 87 -88 0
-88 89 0
20 88 -89 0
-89 90 0
21 89 -90 0
-90 91 0
22 90 -91 0
-91 92 0
23 91 -92 0
-92 93 0
24 92 -93 0
-130 -93 -131 0
131 -143 0
-93 132 0
-130 132 0
93 130 -132 0
-32 100 0
-31 99 0
-30 98 0
-29 97 0
-28 96 0
-27 95 0
-25 94 0
-26 94 0
25 26 -94 0
-94 95 0
27 94 -95 0
-95 96 0
28 95 -96 0
-96 97 0
29 96 -97 0
-97 98 0
30 97 -98 0
-98 99 0
31 98 -99 0
-99 100 0
32 99 -100 0
-132 -100 -133 0
133 -143 0
-100 134 0
-132 134 0
100 132 -134 0
-40 107 0
-39 106 0
-38 105 0
-37 104 0
-36 103 0
-35 102 0
-33 101 0
-34 101 0
33 34 -101 0
-101 102 0
35 101 -102 0
-102 103 0
36 102 -103 0
-103 104 0
37 103 -104 0
-104 105 0
38 104 -105 0
-105 106 0
39 105 -106 0
-106 107 0
40 106 -107 0
-134 -107 -135 0
135 -143 0
-107 136 0
-134 136 0
107 134 -136 0
-48 114 0
-47 113 0
-46 112 0
-45 111 0
-44 110 0
-43 109 0
-41 108 0
-42 108 0
41 42 -108 0
-108 109 0
43 108 -109 0
-109 110 0
44 109 -110 0
-110 111 0
45 110 -111 0
-111 112 0
46 111 -112 0
-112 113 0
47 112 -113 0
-113 114 0
48 113 -114 0
-136 -114 -137 0
137 -143 0
-114 138 0
-136 138 0
114 136 -138 0
-56 121 0
-55 120 0
-54 119 0
-53 118 0
-52 117 0
-51 116 0
-49 115 0
-50 115 0
49 50 -115 0
-115 116 0
51 115 -116 0
-116 117 0
52 116 -117 0
-117 118 0
53 117 -118 0
-118 119 0
54 118 -119 0
-119 120 0
55 119 -120 0
-120 121 0
56 120 -121 0
-138 -121 -139 0
139 -143 0
-121 140 0
-138 140 0
121 138 -140 0
-64 128 0
-63 127 0
-62 126 0
-61 125 0
-60 124 0
-59 123 0
-57 122 0
-58 122 0
57 58 -122 0
-122 123 0
59 122 -123 0
-123 124 0
60 123 -124 0
-124 125 0
61 124 -125 0
-125 126 0
62 125 -126 0
-126 127 0
63 126 -127 0
-127 128 0
64 127 -128 0
-140 -128 -141 0
141 -143 0
128 140 -142 0
142 -143 0
143 -247 0
214 -247 0
-66 -65 -215 0
215 -229 0
-65 216 0
-66 216 0
65 66 -216 0
-216 -67 -217 0
217 -229 0
-67 218 0
-216 218 0
67 216 -218 0
-218 -68 -219 0
219 -229 0
-68 220 0
-218 220 0
68 218 -220 0
-220 -69 -221 0
221 -229 0
-69 222 0
-220 222 0
69 220 -222 0
-222 -70 -223 0
223 -229 0
-70 224 0
-222 224 0
70 222 -224 0
-224 -71 -225 0
225 -229 0
-71 226 0
-224 226 0
71 224 -226 0
-226 -72 -227 0
227 -229 0
72 226 -228 0
228 -229 0
229 -247 0
-65 66 -248 0
248 -306 0
-65 -66 249 0
65 66 249 0
-66 66 249 0
-1 10 -250 0
-249 250 -251 0
251 -306 0
-1 -10 252 0
1 10 252 0
-10 10 252 0
-249 -252 253 0
-2 9 -254 0
-253 254 -255 0
255 -306 0
-2 -9 256 0
2 9 256 0
-9 9 256 0
-253 -256 257 0
-3 11 -258 0
-257 258 -259 0
259 -306 0
-3 -11 260 0
3 11 260 0
-11 11 260 0
-257 -260 261 0
-4 12 -262 0
-261 262 -263 0
263 -306 0
-4 -12 264 0
4 12 264 0
-12 12 264 0
-261 -264 265 0
-5 13 -266 0
-265 266 -267 0
267 -306 0
-5 -13 268 0
5 13 268 0
-13 13 268 0
-265 -268 269 0
-6 14 -270 0
-269 270 -271 0
271 -306 0
-6 -14 272 0
6 14 272 0
-14 14 272 0
-269 -272 273 0
-7 15 -274 0
-273 274 -275 0
275 -306 0
-7 -15 276 0
7 15 276 0
-15 15 276 0
-273 -276 277 0
-8 16 -278 0
-277 278 -279 0
279 -306 0
-8 -16 280 0
8 16 280 0
-16 16 280 0
-277 -280 281 0
-17 18 -282 0
-281 282 -283 0
283 -306 0
-17 -18 284 0
17 18 284 0
-18 18 284 0
-281 -284 285 0
-25 26 -286 0
-285 286 -287 0
287 -306 0
-25 -26 288 0
25 26 288 0
-26 26 288 0
-285 -288 289 0
-33 34 -290 0
-289 290 -291 0
291 -306 0
-33 -34 292 0
33 34 292 0
-34 34 292 0
-289 -292 293 0
-41 42 -294 0
-293 294 -295 0
295 -306 0
-41 -42 296 0
41 42 296 0
-42 42 296 0
-293 -296 297 0
-49 50 -298 0
-297 298 -299 0
299 -306 0
-49 -50 300 0
49 50 300 0
-50 50 300 0
-297 -300 301 0
-57 58 -302 0
-301 302 -303 0
303 -306 0
306 -661 0
-66 67 -307 0
307 -365 0
-66 -67 308 0
66 67 308 0
-67 67 308 0
-2 3 -309 0
-308 309 -310 0
310 -365 0
-2 -3 311 0
2 3 311 0
-3 3 311 0
-308 -311 312 0
-9 17 -313 0
-312 313 -314 0
314 -365 0
-9 -17 315 0
9 17 315 0
-17 17 315 0
-312 -315 316 0
-10 19 -317 0
-316 317 -318 0
318 -365 0
-10 -19 319 0
10 19 319 0
-19 19 319 0
-316 -319 320 0
-11 18 -321 0
-320 321 -322 0
322 -365 0
-11 -18 323 0
11 18 323 0
-18 18 323 0
-320 -323 324 0
-12 20 -325 0
-324 325 -326 0
326 -365 0
-12 -20 327 0
12 20 327 0
-20 20 327 0
-324 -327 328 0
-13 21 -329 0
-328 329 -330 0
330 -365 0
-13 -21 331 0
13 21 331 0
-21 21 331 0
-328 -331 332 0
-14 22 -333 0
-332 333 -334 0
334 -365 0
-14 -22 335 0
14 22 335 0
-22 22 335 0
-332 -335 336 0
-15 23 -337 0
-336 337 -338 0
338 -365 0
-15 -23 339 0
15 23 339 0
-23 23 339 0
-336 -339 340 0
-16 24 -341 0
-340 341 -342 0
342 -365 0
-16 -24 343 0
16 24 343 0
-24 24 343 0
-340 -343 344 0
-26 27 -345 0
-344 345 -346 0
346 -365 0
-26 -27 347 0
26 27 347 0
-27 27 347 0
-344 -347 348 0
-34 35 -349 0
-348 349 -350 0
350 -365 0
-34 -35 351 0
34 35 351 0
-35 35 351 0
-348 -351 352 0
-42 43 -353 0
-352 353 -354 0
354 -365 0
-42 -43 355 0
42 43 355 0
-43 43 355 0
-352 -355 356 0
-50 51 -357 0
-356 357 -358 0
358 -365 0
-50 -51 359 0
50 51 359 0
-51 51 359 0
-356 -359 360 0
-58 59 -361 0
-360 361 -362 0
362 -365 0
365 -661 0
-67 68 -366 0
366 -424 0
-67 -68 367 0
67 68 367 0
-68 68 367 0
-3 4 -368 0
-367 368 -369 0
369 -424 0
-3 -4 370 0
3 4 370 0
-4 4 370 0
-367 -370 371 0
-11 12 -372 0
-371 372 -373 0
373 -424 0
-11 -12 374 0
11 12 374 0
-12 12 374 0
-371 -374 375 0
-17 25 -376 0
-375 376 -377 0
377 -424 0
-17 -25 378 0
17 25 378 0
-25 25 378 0
-375 -378 379 0
-18 26 -380 0
-379 380 -381 0
381 -424 0
-18 -26 382 0
18 26 382 0
-26 26 382 0
-379 -382 383 0
-19 28 -384 0
-383 384 -385 0
385 -424 0
-19 -28 386 0
19 28 386 0
-28 28 386 0
-383 -386 387 0
-20 27 -388 0
-387 388 -389 0
389 -424 0
-20 -27 390 0
20 27 390 0
-27 27 390 0
-387 -390 391 0
-21 29 -392 0
-391 392 -393 0
393 -424 0
-21 -29 394 0
21 29 394 0
-29 29 394 0
-391 -394 395 0
-22 30 -396 0
-395 396 -397 0
397 -424 0
-22 -30 398 0
22 30 398 0
-30 30 398 0
-395 -398 399 0
-23 31 -400 0
-399 400 -401 0
401 -424 0
-23 -31 402 0
23 31 402 0
-31 31 402 0
-399 -402 403 0
-24 32 -404 0
-403 404 -405 0
405 -424 0
-24 -32 406 0
24 32 406 0
-32 32 406 0
-403 -406 407 0
-35 36 -408 0
-407 408 -409 0
409 -424 0
-35 -36 410 0
35 36 410 0
-36 36 410 0
-407 -410 411 0
-43 44 -412 0
-411 412 -413 0
413 -424 0
-43 -44 414 0
43 44 414 0
-44 44 414 0
-411 -414 415 0
-51 52 -416 0
-415 416 -417 0
417 -424 0
-51 -52 418 0
51 52 418 0
-52 52 418 0
-415 -418 419 0
-59 60 -420 0
-419 420 -421 0
421 -424 0
424 -661 0
-68 69 -425 0
425 -483 0
-68 -69 426 0
68 69 426 0
-69 69 426 0
-4 5 -427 0
-426 427 -428 0
428 -483 0
-4 -5 429 0
4 5 429 0
-5 5 429 0
-426 -429 430 0
-12 13 -431 0
-430 431 -432 0
432 -483 0
-12 -13 433 0
12 13 433 0
-13 13 433 0
-430 -433 434 0
-20 21 -435 0
-434 435 -436 0
436 -483 0
-20 -21 437 0
20 21 437 0
-21 21 437 0
-434 -437 438 0
-25 33 -439 0
-438 439 -440 0
440 -483 0
-25 -33 441 0
25 33 441 0
-33 33 441 0
-438 -441 442 0
-26 34 -443 0
-442 443 -444 0
444 -483 0
-26 -34 445 0
26 34 445 0
-34 34 445 0
-442 -445 446 0
-27 35 -447 0
-446 447 -448 0
448 -483 0
-27 -35 449 0
27 35 449 0
-35 35 449 0
-446 -449 450 0
-28 37 -451 0
-450 451 -452 0
452 -483 0
-28 -37 453 0
28 37 453 0
-37 37 453 0
-450 -453 454 0
-29 36 -455 0
-454 455 -456 0
456 -483 0
-29 -36 457 0
29 36 457 0
-36 36 457 0
-454 -457 458 0
-30 38 -459 0
-458 459 -460 0
460 -483 0
-30 -38 461 0
30 38 461 0
-38 38 461 0
-458 -461 462 0
-31 39 -463 0
-462 463 -464 0
464 -483 0
-31 -39 465 0
31 39 465 0
-39 39 465 0
-462 -465 466 0
-32 40 -467 0
-466 467 -468 0
468 -483 0
-32 -40 469 0
32 40 469 0
-40 40 469 0
-466 -469 470 0
-44 45 -471 0
-470 471 -472 0
472 -483 0
-44 -45 473 0
44 45 473 0
-45 45 473 0
-470 -473 474 0
-52 53 -475 0
-474 475 -476 0
476 -483 0
-52 -53 477 0
52 53 477 0
-53 53 477 0
-474 -477 478 0
-60 61 -479 0
-478 479 -480 0
480 -483 0
483 -661 0
-69 70 -484 0
484 -542 0
-69 -70 485 0
69 70 485 0
-70 70 485 0
-5 6 -486 0
-485 486 -487 0
487 -542 0
-5 -6 488 0
5 6 488 0
-6 6 488 0
-485 -488 489 0
-13 14 -490 0
-489 490 -491 0
491 -542 0
-13 -14 492 0
13 14 492 0
-14 14 492 0
-489 -492 493 0
-21 22 -494 0
-493 494 -495 0
495 -542 0
-21 -22 496 0
21 22 496 0
-22 22 496 0
-493 -496 497 0
-29 30 -498 0
-497 498 -499 0
499 -542 0
-29 -30 500 0
29 30 500 0
-30 30 500 0
-497 -500 501 0
-33 41 -502 0
-501 502 -503 0
503 -542 0
-33 -41 504 0
33 41 504 0
-41 41 504 0
-501 -504 505 0
-34 42 -506 0
-505 506 -507 0
507 -542 0
-34 -42 508 0
34 42 508 0
-42 42 508 0
-505 -508 509 0
-35 43 -510 0
-509 510 -511 0
511 -542 0
-35 -43 512 0
35 43 512 0
-43 43 512 0
-509 -512 513 0
-36 44 -514 0
-513 514 -515 0
515 -542 0
-36 -44 516 0
36 44 516 0
-44 44 516 0
-513 -516 517 0
-37 46 -518 0
-517 518 -519 0
519 -542 0
-37 -46 520 0
37 46 520 0
-46 46 520 0
-517 -520 521 0
-38 45 -522 0
-521 522 -523 0
523 -542 0
-38 -45 524 0
38 45 524 0
-45 45 524 0
-521 -524 525 0
-39 47 -526 0
-525 526 -527 0
527 -542 0
-39 -47 528 0
39 47 528 0
-47 47 528 0
-525 -528 529 0
-40 48 -530 0
-529 530 -531 0
531 -542 0
-40 -48 532 0
40 48 532 0
-48 48 532 0
-529 -532 533 0
-53 54 -534 0
-533 534 -535 0
535 -542 0
-53 -54 536 0
53 54 536 0
-54 54 536 0
-533 -536 537 0
-61 62 -538 0
-537 538 -539 0
539 -542 0
542 -661 0
-70 71 -543 0
543 -601 0
-70 -71 544 0
70 71 544 0
-71 71 544 0
-6 7 -545 0
-544 545 -546 0
546 -601 0
-6 -7 547 0
6 7 547 0
-7 7 547 0
-544 -547 548 0
-14 15 -549 0
-548 549 -550 0
550 -601 0
-14 -15 551 0
14 15 551 0
-15 15 551 0
-548 -551 552 0
-22 23 -553 0
-552 553 -554 0
554 -601 0
-22 -23 555 0
22 23 555 0
-23 23 555 0
-552 -555 556 0
-30 31 -557 0
-556 557 -558 0
558 -601 0
-30 -31 559 0
30 31 559 0
-31 31 559 0
-556 -559 560 0
-38 39 -561 0
-560 561 -562 0
562 -601 0
-38 -39 563 0
38 39 563 0
-39 39 563 0
-560 -563 564 0
-41 49 -565 0
-564 565 -566 0
566 -601 0
-41 -49 567 0
41 49 567 0
-49 49 567 0
-564 -567 568 0
-42 50 -569 0
-568 569 -570 0
570 -601 0
-42 -50 571 0
42 50 571 0
-50 50 571 0
-568 -571 572 0
-43 51 -573 0
-572 573 -574 0
574 -601 0
-43 -51 575 0
43 51 575 0
-51 51 575 0
-572 -575 576 0
-44 52 -577 0
-576 577 -578 0
578 -601 0
-44 -52 579 0
44 52 579 0
-52 52 579 0
-576 -579 580 0
-45 53 -581 0
-580 581 -582 0
582 -601 0
-45 -53 583 0
45 53 583 0
-53 53 583 0
-580 -583 584 0
-46 55 -585 0
-584 585 -586 0
586 -601 0
-46 -55 587 0
46 55 587 0
-55 55 587 0
-584 -587 588 0
-47 54 -589 0
-588 589 -590 0
590 -601 0
-47 -54 591 0
47 54 591 0
-54 54 591 0
-588 -591 592 0
-48 56 -593 0
-592 593 -594 0
594 -601 0
-48 -56 595 0
48 56 595 0
-56 56 595 0
-592 -595 596 0
-62 63 -597 0
-596 597 -598 0
598 -601 0
601 -661 0
-71 72 -602 0
602 -660 0
-71 -72 603 0
71 72 603 0
-72 72 603 0
-7 8 -604 0
-603 604 -605 0
605 -660 0
-7 -8 606 0
7 8 606 0
-8 8 606 0
-603 -606 607 0
-15 16 -608 0
-607 608 -609 0
609 -660 0
-15 -16 610 0
15 16 610 0
-16 16 610 0
-607 -610 611 0
-23 24 -612 0
-611 612 -613 0
613 -660 0
-23 -24 614 0
23 24 614 0
-24 24 614 0
-611 -614 615 0
-31 32 -616 0
-615 616 -617 0
617 -660 0
-31 -32 618 0
31 32 618 0
-32 32 618 0
-615 -618 619 0
-39 40 -620 0
-619 620 -621 0
621 -660 0
-39 -40 622 0
39 40 622 0
-40 40 622 0
-619 -622 623 0
-47 48 -624 0
-623 624 -625 0
625 -660 0
-47 -48 626 0
47 48 626 0
-48 48 626 0
-623 -626 627 0
-49 57 -628 0
-627 628 -629 0
629 -660 0
-49 -57 630 0
49 57 630 0
-57 57 630 0
-627 -630 631 0
-50 58 -632 0
-631 632 -633 0
633 -660 0
-50 -58 634 0
50 58 634 0
-58 58 634 0
-631 -634 635 0
-51 59 -636 0
-635 636 -637 0
637 -660 0
-51 -59 638 0
51 59 638 0
-59 59 638 0
-635 -638 639 0
-52 60 -640 0
-639 640 -641 0
641 -660 0
-52 -60 642 0
52 60 642 0
-60 60 642 0
-639 -642 643 0
-53 61 -644 0
-643 644 -645 0
645 -660 0
-53 -61 646 0
53 61 646 0
-61 61 646 0
-643 -646 647 0
-54 62 -648 0
-647 648 -649 0
649 -660 0
-54 -62 650 0
54 62 650 0
-62 62 650 0
-647 -650 651 0
-55 64 -652 0
-651 652 -653 0
653 -660 0
-55 -64 654 0
55 64 654 0
-64 64 654 0
-651 -654 655 0
-56 63 -656 0
-655 656 -657 0
657 -660 0
660 -661 0
247 0
661 0
